-1 2 -1 1 -1 
10 5 3 8 -1 
-1 4 10 3 -1 
-1 10 1 2 -1 
-1 7 2 10 -1 
1 0 9 3 -1 
7 1 8 -1 -1 
5 3 2 2 -1 
0 9 5 0 -1 
4 -1 3 9 -1 
-1 10 5 -1 -1 
0 3 3 9 -1 
8 10 -1 -1 -1 
8 10 -1 4 -1 
3 -1 2 0 -1 
-1 10 10 9 -1 
9 7 4 5 -1 
2 -1 10 6 -1 
-1 6 8 7 -1 
-1 -1 -1 -1 -1 
